(set-logic QF_UF)
(declare-fun A0 () Bool)
(declare-fun A1 () Bool)
(declare-fun A2 () Bool)
(declare-fun A3 () Bool)
(declare-fun A4 () Bool)
(declare-fun A5 () Bool)
(declare-fun A6 () Bool)
(declare-fun A7 () Bool)
(declare-fun A8 () Bool)
(declare-fun A9 () Bool)
(declare-fun A10 () Bool)
(declare-fun A11 () Bool)
(declare-fun A12 () Bool)
(declare-fun A13 () Bool)
(declare-fun A14 () Bool)
(declare-fun A15 () Bool)
(declare-fun A16 () Bool)
(declare-fun A17 () Bool)
(declare-fun A18 () Bool)
(declare-fun A19 () Bool)
(declare-fun A20 () Bool)
(declare-fun A21 () Bool)
(declare-fun A22 () Bool)
(declare-fun A23 () Bool)
(declare-fun A24 () Bool)
(assert (let ((.def_0 (not A24))) (let ((.def_1 (and A3 .def_0))) (let ((.def_2 (not A13))) (let ((.def_3 (and .def_2 A19))) (let ((.def_4 (not .def_3))) (let ((.def_5 (or .def_4 .def_1))) (let ((.def_6 (not .def_5))) (let ((.def_7 (not A17))) (let ((.def_8 (and A8 .def_7))) (let ((.def_9 (not A3))) (let ((.def_10 (= A1 .def_9))) (let ((.def_11 (or .def_10 .def_8))) (let ((.def_12 (or .def_11 .def_6))) (let ((.def_13 (not .def_12))) (let ((.def_14 (not A12))) (let ((.def_15 (not A10))) (let ((.def_16 (or .def_15 .def_14))) (let ((.def_17 (not .def_16))) (let ((.def_18 (not A2))) (let ((.def_19 (or .def_9 .def_18))) (let ((.def_20 (or .def_19 .def_17))) (let ((.def_21 (not .def_20))) (let ((.def_22 (= A3 A15))) (let ((.def_23 (not A18))) (let ((.def_24 (not A4))) (let ((.def_25 (and .def_24 .def_23))) (let ((.def_26 (or .def_25 .def_22))) (let ((.def_27 (or .def_26 .def_21))) (let ((.def_28 (not .def_27))) (let ((.def_29 (and .def_28 .def_13))) (let ((.def_30 (or A4 A1))) (let ((.def_31 (and A10 A8))) (let ((.def_32 (or .def_31 .def_30))) (let ((.def_33 (not .def_32))) (let ((.def_34 (not A15))) (let ((.def_35 (or .def_7 .def_34))) (let ((.def_36 (not A9))) (let ((.def_37 (or .def_36 A23))) (let ((.def_38 (not .def_37))) (let ((.def_39 (= .def_38 .def_35))) (let ((.def_40 (and .def_39 .def_33))) (let ((.def_41 (= .def_24 .def_7))) (let ((.def_42 (not A16))) (let ((.def_43 (and .def_42 .def_24))) (let ((.def_44 (or .def_43 .def_41))) (let ((.def_45 (not A11))) (let ((.def_46 (= .def_45 .def_34))) (let ((.def_47 (not .def_46))) (let ((.def_48 (= A7 A22))) (let ((.def_49 (or .def_48 .def_47))) (let ((.def_50 (not .def_49))) (let ((.def_51 (or .def_50 .def_44))) (let ((.def_52 (or .def_51 .def_40))) (let ((.def_53 (not .def_52))) (let ((.def_54 (= .def_53 .def_29))) (let ((.def_55 (not .def_54))) (let ((.def_56 (or A22 A18))) (let ((.def_57 (not .def_56))) (let ((.def_58 (and A3 A6))) (let ((.def_59 (not .def_58))) (let ((.def_60 (or .def_59 .def_57))) (let ((.def_61 (not .def_60))) (let ((.def_62 (or A0 .def_14))) (let ((.def_63 (not A21))) (let ((.def_64 (and .def_63 .def_24))) (let ((.def_65 (not .def_64))) (let ((.def_66 (or .def_65 .def_62))) (let ((.def_67 (or .def_66 .def_61))) (let ((.def_68 (not A6))) (let ((.def_69 (and A15 .def_68))) (let ((.def_70 (not .def_69))) (let ((.def_71 (not A5))) (let ((.def_72 (or A10 .def_71))) (let ((.def_73 (or .def_72 .def_70))) (let ((.def_74 (or .def_63 A12))) (let ((.def_75 (not .def_74))) (let ((.def_76 (or A9 .def_24))) (let ((.def_77 (or .def_76 .def_75))) (let ((.def_78 (and .def_77 .def_73))) (let ((.def_79 (and .def_78 .def_67))) (let ((.def_80 (not .def_79))) (let ((.def_81 (and A0 A0))) (let ((.def_82 (not A1))) (let ((.def_83 (or .def_82 .def_9))) (let ((.def_84 (not .def_83))) (let ((.def_85 (= .def_84 .def_81))) (let ((.def_86 (not .def_85))) (let ((.def_87 (not A8))) (let ((.def_88 (or .def_87 A13))) (let ((.def_89 (and .def_34 .def_36))) (let ((.def_90 (not .def_89))) (let ((.def_91 (or .def_90 .def_88))) (let ((.def_92 (not .def_91))) (let ((.def_93 (and .def_92 .def_86))) (let ((.def_94 (and .def_7 .def_71))) (let ((.def_95 (or A12 A11))) (let ((.def_96 (and .def_95 .def_94))) (let ((.def_97 (or A6 .def_7))) (let ((.def_98 (or A8 A14))) (let ((.def_99 (and .def_98 .def_97))) (let ((.def_100 (or .def_99 .def_96))) (let ((.def_101 (not .def_100))) (let ((.def_102 (= .def_101 .def_93))) (let ((.def_103 (or .def_102 .def_80))) (let ((.def_104 (not .def_103))) (let ((.def_105 (or .def_104 .def_55))) (let ((.def_106 (not .def_105))) (let ((.def_107 (or .def_82 .def_2))) (let ((.def_108 (not A19))) (let ((.def_109 (and A22 .def_108))) (let ((.def_110 (not .def_109))) (let ((.def_111 (or .def_110 .def_107))) (let ((.def_112 (= .def_63 .def_24))) (let ((.def_113 (not .def_112))) (let ((.def_114 (or .def_42 .def_18))) (let ((.def_115 (and .def_114 .def_113))) (let ((.def_116 (and .def_115 .def_111))) (let ((.def_117 (and .def_34 .def_63))) (let ((.def_118 (and .def_45 A22))) (let ((.def_119 (and .def_118 .def_117))) (let ((.def_120 (and A15 A5))) (let ((.def_121 (or A24 .def_87))) (let ((.def_122 (or .def_121 .def_120))) (let ((.def_123 (not .def_122))) (let ((.def_124 (= .def_123 .def_119))) (let ((.def_125 (not .def_124))) (let ((.def_126 (or .def_125 .def_116))) (let ((.def_127 (and A7 A21))) (let ((.def_128 (not .def_127))) (let ((.def_129 (or .def_36 A5))) (let ((.def_130 (not .def_129))) (let ((.def_131 (= .def_130 .def_128))) (let ((.def_132 (or A3 A15))) (let ((.def_133 (or .def_45 A3))) (let ((.def_134 (not .def_133))) (let ((.def_135 (and .def_134 .def_132))) (let ((.def_136 (or .def_135 .def_131))) (let ((.def_137 (not .def_136))) (let ((.def_138 (or A22 A16))) (let ((.def_139 (not .def_138))) (let ((.def_140 (and A4 .def_36))) (let ((.def_141 (or .def_140 .def_139))) (let ((.def_142 (not .def_141))) (let ((.def_143 (or A24 A12))) (let ((.def_144 (not .def_143))) (let ((.def_145 (not A20))) (let ((.def_146 (and .def_0 .def_145))) (let ((.def_147 (and .def_146 .def_144))) (let ((.def_148 (not .def_147))) (let ((.def_149 (and .def_148 .def_142))) (let ((.def_150 (or .def_149 .def_137))) (let ((.def_151 (or .def_150 .def_126))) (let ((.def_152 (or A1 A11))) (let ((.def_153 (not A23))) (let ((.def_154 (or .def_153 A1))) (let ((.def_155 (or .def_154 .def_152))) (let ((.def_156 (and .def_145 A9))) (let ((.def_157 (not A22))) (let ((.def_158 (or .def_157 .def_157))) (let ((.def_159 (and .def_158 .def_156))) (let ((.def_160 (not .def_159))) (let ((.def_161 (and .def_160 .def_155))) (let ((.def_162 (and A19 A21))) (let ((.def_163 (or A2 .def_45))) (let ((.def_164 (and .def_163 .def_162))) (let ((.def_165 (not .def_164))) (let ((.def_166 (or .def_145 .def_0))) (let ((.def_167 (and A23 A3))) (let ((.def_168 (and .def_167 .def_166))) (let ((.def_169 (or .def_168 .def_165))) (let ((.def_170 (and .def_169 .def_161))) (let ((.def_171 (not .def_170))) (let ((.def_172 (and A7 A16))) (let ((.def_173 (or A12 .def_63))) (let ((.def_174 (or .def_173 .def_172))) (let ((.def_175 (or A18 .def_15))) (let ((.def_176 (not .def_175))) (let ((.def_177 (and A14 A19))) (let ((.def_178 (or .def_177 .def_176))) (let ((.def_179 (not .def_178))) (let ((.def_180 (= .def_179 .def_174))) (let ((.def_181 (not A7))) (let ((.def_182 (and A4 .def_181))) (let ((.def_183 (not .def_182))) (let ((.def_184 (or .def_68 A13))) (let ((.def_185 (and .def_184 .def_183))) (let ((.def_186 (not .def_185))) (let ((.def_187 (= A22 .def_181))) (let ((.def_188 (not .def_187))) (let ((.def_189 (and .def_9 .def_71))) (let ((.def_190 (not .def_189))) (let ((.def_191 (or .def_190 .def_188))) (let ((.def_192 (= .def_191 .def_186))) (let ((.def_193 (= .def_192 .def_180))) (let ((.def_194 (and .def_193 .def_171))) (let ((.def_195 (not .def_194))) (let ((.def_196 (and .def_195 .def_151))) (let ((.def_197 (not .def_196))) (let ((.def_198 (and .def_197 .def_106))) (let ((.def_199 (not .def_198))) (let ((.def_200 (or .def_108 A4))) (let ((.def_201 (= A18 A16))) (let ((.def_202 (and .def_201 .def_200))) (let ((.def_203 (not .def_202))) (let ((.def_204 (or .def_68 A11))) (let ((.def_205 (not .def_204))) (let ((.def_206 (or .def_71 .def_82))) (let ((.def_207 (and .def_206 .def_205))) (let ((.def_208 (not .def_207))) (let ((.def_209 (and .def_208 .def_203))) (let ((.def_210 (not A14))) (let ((.def_211 (or .def_210 .def_71))) (let ((.def_212 (and .def_68 A19))) (let ((.def_213 (not .def_212))) (let ((.def_214 (and .def_213 .def_211))) (let ((.def_215 (and .def_210 A24))) (let ((.def_216 (or A15 A3))) (let ((.def_217 (and .def_216 .def_215))) (let ((.def_218 (or .def_217 .def_214))) (let ((.def_219 (not .def_218))) (let ((.def_220 (or .def_219 .def_209))) (let ((.def_221 (not .def_220))) (let ((.def_222 (and .def_2 A15))) (let ((.def_223 (not .def_222))) (let ((.def_224 (and .def_157 A0))) (let ((.def_225 (not .def_224))) (let ((.def_226 (and .def_225 .def_223))) (let ((.def_227 (or .def_14 A3))) (let ((.def_228 (or A4 .def_71))) (let ((.def_229 (not .def_228))) (let ((.def_230 (and .def_229 .def_227))) (let ((.def_231 (or .def_230 .def_226))) (let ((.def_232 (or A22 .def_181))) (let ((.def_233 (not .def_232))) (let ((.def_234 (or A6 .def_71))) (let ((.def_235 (or .def_234 .def_233))) (let ((.def_236 (not .def_235))) (let ((.def_237 (and .def_18 A17))) (let ((.def_238 (not .def_237))) (let ((.def_239 (and A2 A2))) (let ((.def_240 (not .def_239))) (let ((.def_241 (= .def_240 .def_238))) (let ((.def_242 (or .def_241 .def_236))) (let ((.def_243 (not .def_242))) (let ((.def_244 (or .def_243 .def_231))) (let ((.def_245 (and .def_244 .def_221))) (let ((.def_246 (or .def_42 .def_7))) (let ((.def_247 (or A6 A17))) (let ((.def_248 (or .def_247 .def_246))) (let ((.def_249 (or .def_36 .def_18))) (let ((.def_250 (not .def_249))) (let ((.def_251 (= .def_45 A7))) (let ((.def_252 (and .def_251 .def_250))) (let ((.def_253 (or .def_252 .def_248))) (let ((.def_254 (not .def_253))) (let ((.def_255 (and A7 .def_181))) (let ((.def_256 (not .def_255))) (let ((.def_257 (or A24 A10))) (let ((.def_258 (not .def_257))) (let ((.def_259 (or .def_258 .def_256))) (let ((.def_260 (= .def_153 .def_36))) (let ((.def_261 (not .def_260))) (let ((.def_262 (or A14 A4))) (let ((.def_263 (= .def_262 .def_261))) (let ((.def_264 (not .def_263))) (let ((.def_265 (or .def_264 .def_259))) (let ((.def_266 (not .def_265))) (let ((.def_267 (and .def_266 .def_254))) (let ((.def_268 (not .def_267))) (let ((.def_269 (or .def_87 .def_210))) (let ((.def_270 (not .def_269))) (let ((.def_271 (or A1 .def_0))) (let ((.def_272 (not .def_271))) (let ((.def_273 (= .def_272 .def_270))) (let ((.def_274 (not .def_273))) (let ((.def_275 (and A23 A24))) (let ((.def_276 (not .def_275))) (let ((.def_277 (and .def_108 A14))) (let ((.def_278 (and .def_277 .def_276))) (let ((.def_279 (or .def_278 .def_274))) (let ((.def_280 (not .def_279))) (let ((.def_281 (or A9 A12))) (let ((.def_282 (not .def_281))) (let ((.def_283 (or A17 .def_145))) (let ((.def_284 (not .def_283))) (let ((.def_285 (and .def_284 .def_282))) (let ((.def_286 (not A0))) (let ((.def_287 (= A20 .def_286))) (let ((.def_288 (and A2 A10))) (let ((.def_289 (and .def_288 .def_287))) (let ((.def_290 (not .def_289))) (let ((.def_291 (or .def_290 .def_285))) (let ((.def_292 (not .def_291))) (let ((.def_293 (or .def_292 .def_280))) (let ((.def_294 (or .def_293 .def_268))) (let ((.def_295 (and .def_294 .def_245))) (let ((.def_296 (not .def_295))) (let ((.def_297 (or A19 A21))) (let ((.def_298 (not .def_297))) (let ((.def_299 (or .def_36 A2))) (let ((.def_300 (= .def_299 .def_298))) (let ((.def_301 (not .def_300))) (let ((.def_302 (or .def_34 .def_0))) (let ((.def_303 (not .def_302))) (let ((.def_304 (= .def_15 .def_36))) (let ((.def_305 (and .def_304 .def_303))) (let ((.def_306 (= .def_305 .def_301))) (let ((.def_307 (and A17 .def_87))) (let ((.def_308 (and .def_15 A10))) (let ((.def_309 (and .def_308 .def_307))) (let ((.def_310 (not .def_309))) (let ((.def_311 (and A20 .def_2))) (let ((.def_312 (or .def_145 .def_63))) (let ((.def_313 (and .def_312 .def_311))) (let ((.def_314 (or .def_313 .def_310))) (let ((.def_315 (not .def_314))) (let ((.def_316 (or .def_315 .def_306))) (let ((.def_317 (not .def_316))) (let ((.def_318 (and A4 .def_71))) (let ((.def_319 (not .def_318))) (let ((.def_320 (and .def_34 A11))) (let ((.def_321 (not .def_320))) (let ((.def_322 (and .def_321 .def_319))) (let ((.def_323 (not .def_322))) (let ((.def_324 (or A14 .def_18))) (let ((.def_325 (or .def_87 .def_9))) (let ((.def_326 (not .def_325))) (let ((.def_327 (or .def_326 .def_324))) (let ((.def_328 (= .def_327 .def_323))) (let ((.def_329 (not .def_328))) (let ((.def_330 (or A2 .def_2))) (let ((.def_331 (and A10 A23))) (let ((.def_332 (and .def_331 .def_330))) (let ((.def_333 (or A1 .def_24))) (let ((.def_334 (and .def_145 A8))) (let ((.def_335 (not .def_334))) (let ((.def_336 (and .def_335 .def_333))) (let ((.def_337 (not .def_336))) (let ((.def_338 (and .def_337 .def_332))) (let ((.def_339 (or .def_338 .def_329))) (let ((.def_340 (not .def_339))) (let ((.def_341 (= .def_340 .def_317))) (let ((.def_342 (not .def_341))) (let ((.def_343 (= .def_181 A18))) (let ((.def_344 (not .def_343))) (let ((.def_345 (or .def_82 A2))) (let ((.def_346 (and .def_345 .def_344))) (let ((.def_347 (not .def_346))) (let ((.def_348 (or A6 A0))) (let ((.def_349 (not .def_348))) (let ((.def_350 (or A13 A14))) (let ((.def_351 (or .def_350 .def_349))) (let ((.def_352 (not .def_351))) (let ((.def_353 (and .def_352 .def_347))) (let ((.def_354 (and .def_7 A10))) (let ((.def_355 (not .def_354))) (let ((.def_356 (and A14 .def_14))) (let ((.def_357 (or .def_356 .def_355))) (let ((.def_358 (and .def_45 A5))) (let ((.def_359 (or A17 .def_108))) (let ((.def_360 (or .def_359 .def_358))) (let ((.def_361 (and .def_360 .def_357))) (let ((.def_362 (not .def_361))) (let ((.def_363 (or .def_362 .def_353))) (let ((.def_364 (not .def_363))) (let ((.def_365 (and .def_153 .def_45))) (let ((.def_366 (and .def_24 A18))) (let ((.def_367 (not .def_366))) (let ((.def_368 (and .def_367 .def_365))) (let ((.def_369 (not .def_368))) (let ((.def_370 (or A22 A8))) (let ((.def_371 (and A10 .def_0))) (let ((.def_372 (and .def_371 .def_370))) (let ((.def_373 (and .def_372 .def_369))) (let ((.def_374 (not .def_373))) (let ((.def_375 (or .def_63 .def_145))) (let ((.def_376 (or .def_181 A22))) (let ((.def_377 (not .def_376))) (let ((.def_378 (or .def_377 .def_375))) (let ((.def_379 (not .def_378))) (let ((.def_380 (or A8 A17))) (let ((.def_381 (not .def_380))) (let ((.def_382 (and .def_108 A10))) (let ((.def_383 (not .def_382))) (let ((.def_384 (or .def_383 .def_381))) (let ((.def_385 (and .def_384 .def_379))) (let ((.def_386 (and .def_385 .def_374))) (let ((.def_387 (and .def_386 .def_364))) (let ((.def_388 (or .def_387 .def_342))) (let ((.def_389 (and .def_388 .def_296))) (let ((.def_390 (not .def_389))) (let ((.def_391 (or .def_390 .def_199))) (let ((.def_392 (not .def_391))) .def_392))))))))))))))))))))))))))))))))))))))))))))))))))))))))))))))))))))))))))))))))))))))))))))))))))))))))))))))))))))))))))))))))))))))))))))))))))))))))))))))))))))))))))))))))))))))))))))))))))))))))))))))))))))))))))))))))))))))))))))))))))))))))))))))))))))))))))))))))))))))))))))))))))))))))))))))))))))))))))))))))))))))))))))))))))))))))))))))))))))))))))))))))))))))))))))))))))))))))))
(check-sat)
